(set-info :smt-lib-version 2.6)
(set-logic QF_NIA)
(set-info :source |
Generated by: Cristina Borralleras, Daniel Larraz, Albert Oliveras, Enric Rodriguez-Carbonell, Albert Rubio
Generated on: 2017-04-27
Generator: VeryMax
Application: Termination proving
Target solver: barcelogic
|)
(set-info :license "https://creativecommons.org/licenses/by/4.0/")
(set-info :category "industrial")
(set-info :status sat)
(declare-fun Nl2arg11 () Int)
(declare-fun Nl2arg21 () Int)
(declare-fun Nl2arg31 () Int)
(declare-fun Nl2arg41 () Int)
(declare-fun Nl2arg12 () Int)
(declare-fun Nl2arg22 () Int)
(declare-fun Nl2arg32 () Int)
(declare-fun Nl2arg42 () Int)
(declare-fun lam0n0 () Int)
(declare-fun lam0n1 () Int)
(declare-fun lam0n2 () Int)
(declare-fun lam0n3 () Int)
(declare-fun lam0n4 () Int)
(declare-fun lam0n5 () Int)
(declare-fun lam0n6 () Int)
(declare-fun lam0n7 () Int)
(declare-fun lam0n8 () Int)
(declare-fun lam0n9 () Int)
(declare-fun lam0n10 () Int)
(declare-fun lam0n11 () Int)
(declare-fun Nl2CT1 () Int)
(declare-fun Nl2CT2 () Int)
(declare-fun lam1n0 () Int)
(declare-fun lam1n1 () Int)
(declare-fun lam1n2 () Int)
(declare-fun lam1n3 () Int)
(declare-fun lam1n4 () Int)
(declare-fun lam1n5 () Int)
(declare-fun lam1n6 () Int)
(declare-fun lam1n7 () Int)
(declare-fun lam1n8 () Int)
(declare-fun lam1n9 () Int)
(declare-fun lam1n10 () Int)
(declare-fun lam1n11 () Int)
(declare-fun lam2n0 () Int)
(declare-fun lam2n1 () Int)
(declare-fun lam2n2 () Int)
(declare-fun lam2n3 () Int)
(declare-fun lam2n4 () Int)
(declare-fun lam2n5 () Int)
(declare-fun lam2n6 () Int)
(declare-fun lam2n7 () Int)
(declare-fun lam2n8 () Int)
(declare-fun lam2n9 () Int)
(declare-fun lam2n10 () Int)
(declare-fun lam2n11 () Int)
(declare-fun lam3n0 () Int)
(declare-fun lam3n1 () Int)
(declare-fun lam3n2 () Int)
(declare-fun lam3n3 () Int)
(declare-fun lam3n4 () Int)
(declare-fun lam3n5 () Int)
(declare-fun lam3n6 () Int)
(declare-fun lam3n7 () Int)
(declare-fun lam3n8 () Int)
(declare-fun lam3n9 () Int)
(declare-fun lam3n10 () Int)
(declare-fun lam4n0 () Int)
(declare-fun lam4n1 () Int)
(declare-fun lam4n2 () Int)
(declare-fun lam4n3 () Int)
(declare-fun lam4n4 () Int)
(declare-fun lam4n5 () Int)
(declare-fun lam4n6 () Int)
(declare-fun lam4n7 () Int)
(declare-fun lam4n8 () Int)
(declare-fun lam4n9 () Int)
(declare-fun lam4n10 () Int)
(declare-fun lam5n0 () Int)
(declare-fun lam5n1 () Int)
(declare-fun lam5n2 () Int)
(declare-fun lam5n3 () Int)
(declare-fun lam5n4 () Int)
(declare-fun lam5n5 () Int)
(declare-fun lam5n6 () Int)
(declare-fun lam5n7 () Int)
(declare-fun lam5n8 () Int)
(declare-fun lam5n9 () Int)
(declare-fun lam5n10 () Int)
(declare-fun lam6n0 () Int)
(declare-fun lam6n1 () Int)
(declare-fun lam6n2 () Int)
(declare-fun lam6n3 () Int)
(declare-fun lam6n4 () Int)
(declare-fun lam6n5 () Int)
(declare-fun lam6n6 () Int)
(declare-fun lam6n7 () Int)
(declare-fun lam6n8 () Int)
(declare-fun lam6n9 () Int)
(declare-fun lam6n10 () Int)
(declare-fun lam6n11 () Int)
(declare-fun lam7n0 () Int)
(declare-fun lam7n1 () Int)
(declare-fun lam7n2 () Int)
(declare-fun lam7n3 () Int)
(declare-fun lam7n4 () Int)
(declare-fun lam7n5 () Int)
(declare-fun lam7n6 () Int)
(declare-fun lam7n7 () Int)
(declare-fun lam7n8 () Int)
(declare-fun lam7n9 () Int)
(declare-fun lam7n10 () Int)
(declare-fun lam7n11 () Int)
(declare-fun lam8n0 () Int)
(declare-fun lam8n1 () Int)
(declare-fun lam8n2 () Int)
(declare-fun lam8n3 () Int)
(declare-fun lam8n4 () Int)
(declare-fun lam8n5 () Int)
(declare-fun lam8n6 () Int)
(declare-fun lam8n7 () Int)
(declare-fun lam8n8 () Int)
(declare-fun lam8n9 () Int)
(declare-fun lam8n10 () Int)
(declare-fun lam8n11 () Int)
(declare-fun lam9n0 () Int)
(declare-fun lam9n1 () Int)
(declare-fun lam9n2 () Int)
(declare-fun lam9n3 () Int)
(declare-fun lam9n4 () Int)
(declare-fun lam9n5 () Int)
(declare-fun lam9n6 () Int)
(declare-fun lam9n7 () Int)
(declare-fun lam9n8 () Int)
(declare-fun lam9n9 () Int)
(declare-fun lam9n10 () Int)
(declare-fun lam10n0 () Int)
(declare-fun lam10n1 () Int)
(declare-fun lam10n2 () Int)
(declare-fun lam10n3 () Int)
(declare-fun lam10n4 () Int)
(declare-fun lam10n5 () Int)
(declare-fun lam10n6 () Int)
(declare-fun lam10n7 () Int)
(declare-fun lam10n8 () Int)
(declare-fun lam10n9 () Int)
(declare-fun lam10n10 () Int)
(declare-fun lam11n0 () Int)
(declare-fun lam11n1 () Int)
(declare-fun lam11n2 () Int)
(declare-fun lam11n3 () Int)
(declare-fun lam11n4 () Int)
(declare-fun lam11n5 () Int)
(declare-fun lam11n6 () Int)
(declare-fun lam11n7 () Int)
(declare-fun lam11n8 () Int)
(declare-fun lam11n9 () Int)
(declare-fun lam11n10 () Int)
(declare-fun lam12n0 () Int)
(declare-fun lam12n1 () Int)
(declare-fun lam12n2 () Int)
(declare-fun lam12n3 () Int)
(declare-fun lam12n4 () Int)
(declare-fun lam12n5 () Int)
(declare-fun lam12n6 () Int)
(declare-fun lam12n7 () Int)
(declare-fun lam12n8 () Int)
(declare-fun lam12n9 () Int)
(declare-fun lam12n10 () Int)
(declare-fun lam13n0 () Int)
(declare-fun lam13n1 () Int)
(declare-fun lam13n2 () Int)
(declare-fun lam13n3 () Int)
(declare-fun lam13n4 () Int)
(declare-fun lam13n5 () Int)
(declare-fun lam13n6 () Int)
(declare-fun lam13n7 () Int)
(declare-fun lam13n8 () Int)
(declare-fun lam13n9 () Int)
(declare-fun lam13n10 () Int)
(declare-fun lam14n0 () Int)
(declare-fun lam14n1 () Int)
(declare-fun lam14n2 () Int)
(declare-fun lam14n3 () Int)
(declare-fun lam14n4 () Int)
(declare-fun lam14n5 () Int)
(declare-fun lam14n6 () Int)
(declare-fun lam14n7 () Int)
(declare-fun lam14n8 () Int)
(declare-fun lam14n9 () Int)
(declare-fun lam14n10 () Int)
(declare-fun lam15n0 () Int)
(declare-fun lam15n1 () Int)
(declare-fun lam15n2 () Int)
(declare-fun lam15n3 () Int)
(declare-fun lam15n4 () Int)
(declare-fun lam15n5 () Int)
(declare-fun lam15n6 () Int)
(declare-fun lam15n7 () Int)
(declare-fun lam15n8 () Int)
(declare-fun lam15n9 () Int)
(declare-fun lam15n10 () Int)
(declare-fun lam16n0 () Int)
(declare-fun lam16n1 () Int)
(declare-fun lam16n2 () Int)
(declare-fun lam16n3 () Int)
(declare-fun lam16n4 () Int)
(declare-fun lam16n5 () Int)
(declare-fun lam16n6 () Int)
(declare-fun lam16n7 () Int)
(declare-fun lam16n8 () Int)
(declare-fun lam16n9 () Int)
(declare-fun lam17n0 () Int)
(declare-fun lam17n1 () Int)
(declare-fun lam17n2 () Int)
(declare-fun lam17n3 () Int)
(declare-fun lam17n4 () Int)
(declare-fun lam17n5 () Int)
(declare-fun lam17n6 () Int)
(declare-fun lam17n7 () Int)
(declare-fun lam17n8 () Int)
(declare-fun lam17n9 () Int)
(declare-fun undef1 () Int)
(declare-fun undef13 () Int)
(declare-fun arg1 () Int)
(declare-fun arg3 () Int)
(declare-fun arg4 () Int)
(declare-fun undef14 () Int)
(declare-fun arg2 () Int)
(declare-fun lam21n0 () Int)
(declare-fun lam21n1 () Int)
(declare-fun lam21n2 () Int)
(declare-fun lam21n3 () Int)
(declare-fun lam21n4 () Int)
(declare-fun lam21n5 () Int)
(declare-fun lam21n6 () Int)
(declare-fun lam21n7 () Int)
(declare-fun lam21n8 () Int)
(declare-fun lam21n9 () Int)
(declare-fun lam21n10 () Int)
(declare-fun lam21n11 () Int)
(declare-fun RFN1_CT () Int)
(declare-fun RFN1_arg1 () Int)
(declare-fun RFN1_arg2 () Int)
(declare-fun RFN1_arg3 () Int)
(declare-fun RFN1_arg4 () Int)
(declare-fun lam25n0 () Int)
(declare-fun lam25n1 () Int)
(declare-fun lam25n2 () Int)
(declare-fun lam25n3 () Int)
(declare-fun lam25n4 () Int)
(declare-fun lam25n5 () Int)
(declare-fun lam25n6 () Int)
(declare-fun lam25n7 () Int)
(declare-fun lam25n8 () Int)
(declare-fun lam25n9 () Int)
(declare-fun lam25n10 () Int)
(declare-fun lam19n0 () Int)
(declare-fun lam19n1 () Int)
(declare-fun lam19n2 () Int)
(declare-fun lam19n3 () Int)
(declare-fun lam19n4 () Int)
(declare-fun lam19n5 () Int)
(declare-fun lam19n6 () Int)
(declare-fun lam19n7 () Int)
(declare-fun lam19n8 () Int)
(declare-fun lam19n9 () Int)
(declare-fun lam19n10 () Int)
(declare-fun lam19n11 () Int)
(declare-fun lam20n0 () Int)
(declare-fun lam20n1 () Int)
(declare-fun lam20n2 () Int)
(declare-fun lam20n3 () Int)
(declare-fun lam20n4 () Int)
(declare-fun lam20n5 () Int)
(declare-fun lam20n6 () Int)
(declare-fun lam20n7 () Int)
(declare-fun lam20n8 () Int)
(declare-fun lam20n9 () Int)
(declare-fun lam20n10 () Int)
(declare-fun lam20n11 () Int)
(declare-fun lam23n0 () Int)
(declare-fun lam23n1 () Int)
(declare-fun lam23n2 () Int)
(declare-fun lam23n3 () Int)
(declare-fun lam23n4 () Int)
(declare-fun lam23n5 () Int)
(declare-fun lam23n6 () Int)
(declare-fun lam23n7 () Int)
(declare-fun lam23n8 () Int)
(declare-fun lam23n9 () Int)
(declare-fun lam23n10 () Int)
(declare-fun lam24n0 () Int)
(declare-fun lam24n1 () Int)
(declare-fun lam24n2 () Int)
(declare-fun lam24n3 () Int)
(declare-fun lam24n4 () Int)
(declare-fun lam24n5 () Int)
(declare-fun lam24n6 () Int)
(declare-fun lam24n7 () Int)
(declare-fun lam24n8 () Int)
(declare-fun lam24n9 () Int)
(declare-fun lam24n10 () Int)
(declare-fun lam18n0 () Int)
(declare-fun lam18n1 () Int)
(declare-fun lam18n2 () Int)
(declare-fun lam18n3 () Int)
(declare-fun lam18n4 () Int)
(declare-fun lam18n5 () Int)
(declare-fun lam18n6 () Int)
(declare-fun lam18n7 () Int)
(declare-fun lam18n8 () Int)
(declare-fun lam18n9 () Int)
(declare-fun lam18n10 () Int)
(declare-fun lam18n11 () Int)
(declare-fun lam22n0 () Int)
(declare-fun lam22n1 () Int)
(declare-fun lam22n2 () Int)
(declare-fun lam22n3 () Int)
(declare-fun lam22n4 () Int)
(declare-fun lam22n5 () Int)
(declare-fun lam22n6 () Int)
(declare-fun lam22n7 () Int)
(declare-fun lam22n8 () Int)
(declare-fun lam22n9 () Int)
(declare-fun lam22n10 () Int)
(assert ( and ( <= ( - 1 ) Nl2arg11 ) ( <= Nl2arg11 1 ) ( <= ( - 1 ) Nl2arg21 ) ( <= Nl2arg21 1 ) ( <= ( - 1 ) Nl2arg31 ) ( <= Nl2arg31 1 ) ( <= ( - 1 ) Nl2arg41 ) ( <= Nl2arg41 1 ) ( <= ( - 1 ) Nl2arg12 ) ( <= Nl2arg12 1 ) ( <= ( - 1 ) Nl2arg22 ) ( <= Nl2arg22 1 ) ( <= ( - 1 ) Nl2arg32 ) ( <= Nl2arg32 1 ) ( <= ( - 1 ) Nl2arg42 ) ( <= Nl2arg42 1 ) ))
(assert ( or ( and ( >= lam0n0 0 ) ( >= lam0n1 0 ) ( >= lam0n2 0 ) ( >= lam0n3 0 ) ( >= lam0n4 0 ) ( >= lam0n5 0 ) ( >= lam0n6 0 ) ( >= lam0n7 0 ) ( >= lam0n8 0 ) ( >= lam0n9 0 ) ( >= lam0n10 0 ) ( >= lam0n11 0 ) ( > ( + ( * 1 lam0n0 ) ( * 1 lam0n1 ) ( * 1 lam0n2 ) ( * 1 lam0n3 ) ( * ( - 1 ) lam0n4 ) ( * ( - 1 ) lam0n5 ) ( * 2 lam0n8 ) ( * 2 lam0n9 ) ( * Nl2CT1 lam0n10 ) ( * Nl2CT2 lam0n11 ) ( - 1 ) ) 0 ) ( = ( + ( * ( - 1 ) lam0n0 ) ( * 1 lam0n4 ) ( * ( - 1 ) lam0n6 ) ( * Nl2arg11 lam0n10 ) ( * Nl2arg12 lam0n11 ) ) 0 ) ( = ( + ( * 1 lam0n5 ) ( * ( - 1 ) lam0n7 ) ( * ( - 1 ) lam0n8 ) ( * Nl2arg21 lam0n10 ) ( * Nl2arg22 lam0n11 ) ) 0 ) ( = ( + ( * 1 lam0n1 ) ( * ( - 1 ) lam0n2 ) ( * 1 lam0n4 ) ( * ( - 1 ) lam0n5 ) ( * Nl2arg31 lam0n10 ) ( * Nl2arg32 lam0n11 ) ) 0 ) ( = ( + ( * ( - 1 ) lam0n1 ) ( * ( - 1 ) lam0n4 ) ( * ( - 1 ) lam0n8 ) ( * ( - 1 ) lam0n9 ) ( * Nl2arg41 lam0n10 ) ( * Nl2arg42 lam0n11 ) ) 0 ) ( = ( + ( * ( - 1 ) lam0n3 ) ( * 1 lam0n6 ) ) 0 ) ) ( and ( >= lam1n0 0 ) ( >= lam1n1 0 ) ( >= lam1n2 0 ) ( >= lam1n3 0 ) ( >= lam1n4 0 ) ( >= lam1n5 0 ) ( >= lam1n6 0 ) ( >= lam1n7 0 ) ( >= lam1n8 0 ) ( >= lam1n9 0 ) ( >= lam1n10 0 ) ( >= lam1n11 0 ) ( > ( + ( * 1 lam1n0 ) ( * 1 lam1n1 ) ( * 1 lam1n2 ) ( * 1 lam1n3 ) ( * ( - 1 ) lam1n4 ) ( * ( - 1 ) lam1n5 ) ( * 2 lam1n8 ) ( * 2 lam1n9 ) ( * Nl2CT1 lam1n10 ) ( * Nl2CT2 lam1n11 ) ( - 1 ( + ( + ( + Nl2CT1 ( * Nl2arg11 0 ) ) ( * Nl2arg21 0 ) ) ( * Nl2arg31 0 ) ) ) ) 0 ) ( = ( + ( * ( - 1 ) lam1n0 ) ( * 1 lam1n4 ) ( * ( - 1 ) lam1n6 ) ( * Nl2arg11 lam1n10 ) ( * Nl2arg12 lam1n11 ) ) 0 ) ( = ( + ( * 1 lam1n5 ) ( * ( - 1 ) lam1n7 ) ( * ( - 1 ) lam1n8 ) ( * Nl2arg21 lam1n10 ) ( * Nl2arg22 lam1n11 ) ( - ( + 0 ( * Nl2arg31 1 ) ) ) ) 0 ) ( = ( + ( * 1 lam1n1 ) ( * ( - 1 ) lam1n2 ) ( * 1 lam1n4 ) ( * ( - 1 ) lam1n5 ) ( * Nl2arg31 lam1n10 ) ( * Nl2arg32 lam1n11 ) ( - ( + ( + 0 ( * Nl2arg21 1 ) ) ( * Nl2arg31 1 ) ) ) ) 0 ) ( = ( + ( * ( - 1 ) lam1n1 ) ( * ( - 1 ) lam1n4 ) ( * ( - 1 ) lam1n8 ) ( * ( - 1 ) lam1n9 ) ( * Nl2arg41 lam1n10 ) ( * Nl2arg42 lam1n11 ) ( - ( + 0 Nl2arg41 ) ) ) 0 ) ( = ( + ( * ( - 1 ) lam1n3 ) ( * 1 lam1n6 ) ( - ( + 0 ( * Nl2arg11 1 ) ) ) ) 0 ) ) ))
(assert ( or ( and ( >= lam0n0 0 ) ( >= lam0n1 0 ) ( >= lam0n2 0 ) ( >= lam0n3 0 ) ( >= lam0n4 0 ) ( >= lam0n5 0 ) ( >= lam0n6 0 ) ( >= lam0n7 0 ) ( >= lam0n8 0 ) ( >= lam0n9 0 ) ( >= lam0n10 0 ) ( >= lam0n11 0 ) ( > ( + ( * 1 lam0n0 ) ( * 1 lam0n1 ) ( * 1 lam0n2 ) ( * 1 lam0n3 ) ( * ( - 1 ) lam0n4 ) ( * ( - 1 ) lam0n5 ) ( * 2 lam0n8 ) ( * 2 lam0n9 ) ( * Nl2CT1 lam0n10 ) ( * Nl2CT2 lam0n11 ) ( - 1 ) ) 0 ) ( = ( + ( * ( - 1 ) lam0n0 ) ( * 1 lam0n4 ) ( * ( - 1 ) lam0n6 ) ( * Nl2arg11 lam0n10 ) ( * Nl2arg12 lam0n11 ) ) 0 ) ( = ( + ( * 1 lam0n5 ) ( * ( - 1 ) lam0n7 ) ( * ( - 1 ) lam0n8 ) ( * Nl2arg21 lam0n10 ) ( * Nl2arg22 lam0n11 ) ) 0 ) ( = ( + ( * 1 lam0n1 ) ( * ( - 1 ) lam0n2 ) ( * 1 lam0n4 ) ( * ( - 1 ) lam0n5 ) ( * Nl2arg31 lam0n10 ) ( * Nl2arg32 lam0n11 ) ) 0 ) ( = ( + ( * ( - 1 ) lam0n1 ) ( * ( - 1 ) lam0n4 ) ( * ( - 1 ) lam0n8 ) ( * ( - 1 ) lam0n9 ) ( * Nl2arg41 lam0n10 ) ( * Nl2arg42 lam0n11 ) ) 0 ) ( = ( + ( * ( - 1 ) lam0n3 ) ( * 1 lam0n6 ) ) 0 ) ) ( and ( >= lam2n0 0 ) ( >= lam2n1 0 ) ( >= lam2n2 0 ) ( >= lam2n3 0 ) ( >= lam2n4 0 ) ( >= lam2n5 0 ) ( >= lam2n6 0 ) ( >= lam2n7 0 ) ( >= lam2n8 0 ) ( >= lam2n9 0 ) ( >= lam2n10 0 ) ( >= lam2n11 0 ) ( > ( + ( * 1 lam2n0 ) ( * 1 lam2n1 ) ( * 1 lam2n2 ) ( * 1 lam2n3 ) ( * ( - 1 ) lam2n4 ) ( * ( - 1 ) lam2n5 ) ( * 2 lam2n8 ) ( * 2 lam2n9 ) ( * Nl2CT1 lam2n10 ) ( * Nl2CT2 lam2n11 ) ( - 1 ( + ( + ( + Nl2CT2 ( * Nl2arg12 0 ) ) ( * Nl2arg22 0 ) ) ( * Nl2arg32 0 ) ) ) ) 0 ) ( = ( + ( * ( - 1 ) lam2n0 ) ( * 1 lam2n4 ) ( * ( - 1 ) lam2n6 ) ( * Nl2arg11 lam2n10 ) ( * Nl2arg12 lam2n11 ) ) 0 ) ( = ( + ( * 1 lam2n5 ) ( * ( - 1 ) lam2n7 ) ( * ( - 1 ) lam2n8 ) ( * Nl2arg21 lam2n10 ) ( * Nl2arg22 lam2n11 ) ( - ( + 0 ( * Nl2arg32 1 ) ) ) ) 0 ) ( = ( + ( * 1 lam2n1 ) ( * ( - 1 ) lam2n2 ) ( * 1 lam2n4 ) ( * ( - 1 ) lam2n5 ) ( * Nl2arg31 lam2n10 ) ( * Nl2arg32 lam2n11 ) ( - ( + ( + 0 ( * Nl2arg22 1 ) ) ( * Nl2arg32 1 ) ) ) ) 0 ) ( = ( + ( * ( - 1 ) lam2n1 ) ( * ( - 1 ) lam2n4 ) ( * ( - 1 ) lam2n8 ) ( * ( - 1 ) lam2n9 ) ( * Nl2arg41 lam2n10 ) ( * Nl2arg42 lam2n11 ) ( - ( + 0 Nl2arg42 ) ) ) 0 ) ( = ( + ( * ( - 1 ) lam2n3 ) ( * 1 lam2n6 ) ( - ( + 0 ( * Nl2arg12 1 ) ) ) ) 0 ) ) ))
(assert ( or ( and ( >= lam3n0 0 ) ( >= lam3n1 0 ) ( >= lam3n2 0 ) ( >= lam3n3 0 ) ( >= lam3n4 0 ) ( >= lam3n5 0 ) ( >= lam3n6 0 ) ( >= lam3n7 0 ) ( >= lam3n8 0 ) ( >= lam3n9 0 ) ( >= lam3n10 0 ) ( > ( + ( * 1 lam3n0 ) ( * 1 lam3n1 ) ( * 1 lam3n2 ) ( * 1 lam3n3 ) ( * ( - 1 ) lam3n4 ) ( * 2 lam3n7 ) ( * 2 lam3n8 ) ( * Nl2CT1 lam3n9 ) ( * Nl2CT2 lam3n10 ) ( - 1 ) ) 0 ) ( = ( + ( * ( - 1 ) lam3n0 ) ( * ( - 1 ) lam3n5 ) ( * ( - 1 ) lam3n7 ) ( * Nl2arg11 lam3n9 ) ( * Nl2arg12 lam3n10 ) ) 0 ) ( = ( + ( * 1 lam3n4 ) ( * ( - 1 ) lam3n6 ) ( * ( - 1 ) lam3n8 ) ( * Nl2arg21 lam3n9 ) ( * Nl2arg22 lam3n10 ) ) 0 ) ( = ( + ( * 1 lam3n1 ) ( * ( - 1 ) lam3n2 ) ( * ( - 1 ) lam3n4 ) ( * ( - 1 ) lam3n7 ) ( * Nl2arg31 lam3n9 ) ( * Nl2arg32 lam3n10 ) ) 0 ) ( = ( + ( * ( - 1 ) lam3n1 ) ( * 1 lam3n7 ) ( * ( - 1 ) lam3n8 ) ( * Nl2arg41 lam3n9 ) ( * Nl2arg42 lam3n10 ) ) 0 ) ( = ( + ( * ( - 1 ) lam3n3 ) ( * 1 lam3n5 ) ) 0 ) ) ( and ( >= lam4n0 0 ) ( >= lam4n1 0 ) ( >= lam4n2 0 ) ( >= lam4n3 0 ) ( >= lam4n4 0 ) ( >= lam4n5 0 ) ( >= lam4n6 0 ) ( >= lam4n7 0 ) ( >= lam4n8 0 ) ( >= lam4n9 0 ) ( >= lam4n10 0 ) ( > ( + ( * 1 lam4n0 ) ( * 1 lam4n1 ) ( * 1 lam4n2 ) ( * 1 lam4n3 ) ( * ( - 1 ) lam4n4 ) ( * 2 lam4n7 ) ( * 2 lam4n8 ) ( * Nl2CT1 lam4n9 ) ( * Nl2CT2 lam4n10 ) ( - 1 ( + ( + ( + Nl2CT1 ( * Nl2arg11 0 ) ) ( * Nl2arg21 0 ) ) ( * Nl2arg31 0 ) ) ) ) 0 ) ( = ( + ( * ( - 1 ) lam4n0 ) ( * ( - 1 ) lam4n5 ) ( * ( - 1 ) lam4n7 ) ( * Nl2arg11 lam4n9 ) ( * Nl2arg12 lam4n10 ) ) 0 ) ( = ( + ( * 1 lam4n4 ) ( * ( - 1 ) lam4n6 ) ( * ( - 1 ) lam4n8 ) ( * Nl2arg21 lam4n9 ) ( * Nl2arg22 lam4n10 ) ( - ( + 0 ( * Nl2arg31 1 ) ) ) ) 0 ) ( = ( + ( * 1 lam4n1 ) ( * ( - 1 ) lam4n2 ) ( * ( - 1 ) lam4n4 ) ( * ( - 1 ) lam4n7 ) ( * Nl2arg31 lam4n9 ) ( * Nl2arg32 lam4n10 ) ( - ( + ( + 0 ( * Nl2arg21 1 ) ) ( * Nl2arg31 1 ) ) ) ) 0 ) ( = ( + ( * ( - 1 ) lam4n1 ) ( * 1 lam4n7 ) ( * ( - 1 ) lam4n8 ) ( * Nl2arg41 lam4n9 ) ( * Nl2arg42 lam4n10 ) ( - ( + 0 Nl2arg41 ) ) ) 0 ) ( = ( + ( * ( - 1 ) lam4n3 ) ( * 1 lam4n5 ) ( - ( + 0 ( * Nl2arg11 1 ) ) ) ) 0 ) ) ))
(assert ( or ( and ( >= lam3n0 0 ) ( >= lam3n1 0 ) ( >= lam3n2 0 ) ( >= lam3n3 0 ) ( >= lam3n4 0 ) ( >= lam3n5 0 ) ( >= lam3n6 0 ) ( >= lam3n7 0 ) ( >= lam3n8 0 ) ( >= lam3n9 0 ) ( >= lam3n10 0 ) ( > ( + ( * 1 lam3n0 ) ( * 1 lam3n1 ) ( * 1 lam3n2 ) ( * 1 lam3n3 ) ( * ( - 1 ) lam3n4 ) ( * 2 lam3n7 ) ( * 2 lam3n8 ) ( * Nl2CT1 lam3n9 ) ( * Nl2CT2 lam3n10 ) ( - 1 ) ) 0 ) ( = ( + ( * ( - 1 ) lam3n0 ) ( * ( - 1 ) lam3n5 ) ( * ( - 1 ) lam3n7 ) ( * Nl2arg11 lam3n9 ) ( * Nl2arg12 lam3n10 ) ) 0 ) ( = ( + ( * 1 lam3n4 ) ( * ( - 1 ) lam3n6 ) ( * ( - 1 ) lam3n8 ) ( * Nl2arg21 lam3n9 ) ( * Nl2arg22 lam3n10 ) ) 0 ) ( = ( + ( * 1 lam3n1 ) ( * ( - 1 ) lam3n2 ) ( * ( - 1 ) lam3n4 ) ( * ( - 1 ) lam3n7 ) ( * Nl2arg31 lam3n9 ) ( * Nl2arg32 lam3n10 ) ) 0 ) ( = ( + ( * ( - 1 ) lam3n1 ) ( * 1 lam3n7 ) ( * ( - 1 ) lam3n8 ) ( * Nl2arg41 lam3n9 ) ( * Nl2arg42 lam3n10 ) ) 0 ) ( = ( + ( * ( - 1 ) lam3n3 ) ( * 1 lam3n5 ) ) 0 ) ) ( and ( >= lam5n0 0 ) ( >= lam5n1 0 ) ( >= lam5n2 0 ) ( >= lam5n3 0 ) ( >= lam5n4 0 ) ( >= lam5n5 0 ) ( >= lam5n6 0 ) ( >= lam5n7 0 ) ( >= lam5n8 0 ) ( >= lam5n9 0 ) ( >= lam5n10 0 ) ( > ( + ( * 1 lam5n0 ) ( * 1 lam5n1 ) ( * 1 lam5n2 ) ( * 1 lam5n3 ) ( * ( - 1 ) lam5n4 ) ( * 2 lam5n7 ) ( * 2 lam5n8 ) ( * Nl2CT1 lam5n9 ) ( * Nl2CT2 lam5n10 ) ( - 1 ( + ( + ( + Nl2CT2 ( * Nl2arg12 0 ) ) ( * Nl2arg22 0 ) ) ( * Nl2arg32 0 ) ) ) ) 0 ) ( = ( + ( * ( - 1 ) lam5n0 ) ( * ( - 1 ) lam5n5 ) ( * ( - 1 ) lam5n7 ) ( * Nl2arg11 lam5n9 ) ( * Nl2arg12 lam5n10 ) ) 0 ) ( = ( + ( * 1 lam5n4 ) ( * ( - 1 ) lam5n6 ) ( * ( - 1 ) lam5n8 ) ( * Nl2arg21 lam5n9 ) ( * Nl2arg22 lam5n10 ) ( - ( + 0 ( * Nl2arg32 1 ) ) ) ) 0 ) ( = ( + ( * 1 lam5n1 ) ( * ( - 1 ) lam5n2 ) ( * ( - 1 ) lam5n4 ) ( * ( - 1 ) lam5n7 ) ( * Nl2arg31 lam5n9 ) ( * Nl2arg32 lam5n10 ) ( - ( + ( + 0 ( * Nl2arg22 1 ) ) ( * Nl2arg32 1 ) ) ) ) 0 ) ( = ( + ( * ( - 1 ) lam5n1 ) ( * 1 lam5n7 ) ( * ( - 1 ) lam5n8 ) ( * Nl2arg41 lam5n9 ) ( * Nl2arg42 lam5n10 ) ( - ( + 0 Nl2arg42 ) ) ) 0 ) ( = ( + ( * ( - 1 ) lam5n3 ) ( * 1 lam5n5 ) ( - ( + 0 ( * Nl2arg12 1 ) ) ) ) 0 ) ) ))
(assert ( or ( and ( >= lam6n0 0 ) ( >= lam6n1 0 ) ( >= lam6n2 0 ) ( >= lam6n3 0 ) ( >= lam6n4 0 ) ( >= lam6n5 0 ) ( >= lam6n6 0 ) ( >= lam6n7 0 ) ( >= lam6n8 0 ) ( >= lam6n9 0 ) ( >= lam6n10 0 ) ( >= lam6n11 0 ) ( > ( + ( * 1 lam6n0 ) ( * 1 lam6n1 ) ( * 1 lam6n2 ) ( * 1 lam6n3 ) ( * 1 lam6n4 ) ( * ( - 1 ) lam6n5 ) ( * ( - 1 ) lam6n6 ) ( * 2 lam6n9 ) ( * Nl2CT1 lam6n10 ) ( * Nl2CT2 lam6n11 ) ( - 1 ) ) 0 ) ( = ( + ( * ( - 1 ) lam6n0 ) ( * ( - 1 ) lam6n7 ) ( * ( - 1 ) lam6n9 ) ( * Nl2arg11 lam6n10 ) ( * Nl2arg12 lam6n11 ) ) 0 ) ( = ( + ( * ( - 1 ) lam6n1 ) ( * 1 lam6n5 ) ( * 1 lam6n6 ) ( * ( - 1 ) lam6n8 ) ( * Nl2arg21 lam6n10 ) ( * Nl2arg22 lam6n11 ) ) 0 ) ( = ( + ( * ( - 1 ) lam6n1 ) ( * ( - 1 ) lam6n2 ) ( * ( - 1 ) lam6n3 ) ( * ( - 1 ) lam6n5 ) ( * ( - 1 ) lam6n9 ) ( * Nl2arg31 lam6n10 ) ( * Nl2arg32 lam6n11 ) ) 0 ) ( = ( + ( * 1 lam6n1 ) ( * 1 lam6n3 ) ( * 1 lam6n6 ) ( * 1 lam6n9 ) ( * Nl2arg41 lam6n10 ) ( * Nl2arg42 lam6n11 ) ) 0 ) ( = ( + ( * ( - 1 ) lam6n4 ) ( * 1 lam6n7 ) ) 0 ) ) ( and ( >= lam7n0 0 ) ( >= lam7n1 0 ) ( >= lam7n2 0 ) ( >= lam7n3 0 ) ( >= lam7n4 0 ) ( >= lam7n5 0 ) ( >= lam7n6 0 ) ( >= lam7n7 0 ) ( >= lam7n8 0 ) ( >= lam7n9 0 ) ( >= lam7n10 0 ) ( >= lam7n11 0 ) ( > ( + ( * 1 lam7n0 ) ( * 1 lam7n1 ) ( * 1 lam7n2 ) ( * 1 lam7n3 ) ( * 1 lam7n4 ) ( * ( - 1 ) lam7n5 ) ( * ( - 1 ) lam7n6 ) ( * 2 lam7n9 ) ( * Nl2CT1 lam7n10 ) ( * Nl2CT2 lam7n11 ) ( - 1 ( + ( + ( + Nl2CT1 ( * Nl2arg11 0 ) ) ( * Nl2arg21 0 ) ) ( * Nl2arg31 0 ) ) ) ) 0 ) ( = ( + ( * ( - 1 ) lam7n0 ) ( * ( - 1 ) lam7n7 ) ( * ( - 1 ) lam7n9 ) ( * Nl2arg11 lam7n10 ) ( * Nl2arg12 lam7n11 ) ) 0 ) ( = ( + ( * ( - 1 ) lam7n1 ) ( * 1 lam7n5 ) ( * 1 lam7n6 ) ( * ( - 1 ) lam7n8 ) ( * Nl2arg21 lam7n10 ) ( * Nl2arg22 lam7n11 ) ( - ( + 0 ( * Nl2arg31 1 ) ) ) ) 0 ) ( = ( + ( * ( - 1 ) lam7n1 ) ( * ( - 1 ) lam7n2 ) ( * ( - 1 ) lam7n3 ) ( * ( - 1 ) lam7n5 ) ( * ( - 1 ) lam7n9 ) ( * Nl2arg31 lam7n10 ) ( * Nl2arg32 lam7n11 ) ( - ( + ( + 0 ( * Nl2arg21 1 ) ) ( * Nl2arg31 1 ) ) ) ) 0 ) ( = ( + ( * 1 lam7n1 ) ( * 1 lam7n3 ) ( * 1 lam7n6 ) ( * 1 lam7n9 ) ( * Nl2arg41 lam7n10 ) ( * Nl2arg42 lam7n11 ) ( - ( + 0 Nl2arg41 ) ) ) 0 ) ( = ( + ( * ( - 1 ) lam7n4 ) ( * 1 lam7n7 ) ( - ( + 0 ( * Nl2arg11 1 ) ) ) ) 0 ) ) ))
(assert ( or ( and ( >= lam6n0 0 ) ( >= lam6n1 0 ) ( >= lam6n2 0 ) ( >= lam6n3 0 ) ( >= lam6n4 0 ) ( >= lam6n5 0 ) ( >= lam6n6 0 ) ( >= lam6n7 0 ) ( >= lam6n8 0 ) ( >= lam6n9 0 ) ( >= lam6n10 0 ) ( >= lam6n11 0 ) ( > ( + ( * 1 lam6n0 ) ( * 1 lam6n1 ) ( * 1 lam6n2 ) ( * 1 lam6n3 ) ( * 1 lam6n4 ) ( * ( - 1 ) lam6n5 ) ( * ( - 1 ) lam6n6 ) ( * 2 lam6n9 ) ( * Nl2CT1 lam6n10 ) ( * Nl2CT2 lam6n11 ) ( - 1 ) ) 0 ) ( = ( + ( * ( - 1 ) lam6n0 ) ( * ( - 1 ) lam6n7 ) ( * ( - 1 ) lam6n9 ) ( * Nl2arg11 lam6n10 ) ( * Nl2arg12 lam6n11 ) ) 0 ) ( = ( + ( * ( - 1 ) lam6n1 ) ( * 1 lam6n5 ) ( * 1 lam6n6 ) ( * ( - 1 ) lam6n8 ) ( * Nl2arg21 lam6n10 ) ( * Nl2arg22 lam6n11 ) ) 0 ) ( = ( + ( * ( - 1 ) lam6n1 ) ( * ( - 1 ) lam6n2 ) ( * ( - 1 ) lam6n3 ) ( * ( - 1 ) lam6n5 ) ( * ( - 1 ) lam6n9 ) ( * Nl2arg31 lam6n10 ) ( * Nl2arg32 lam6n11 ) ) 0 ) ( = ( + ( * 1 lam6n1 ) ( * 1 lam6n3 ) ( * 1 lam6n6 ) ( * 1 lam6n9 ) ( * Nl2arg41 lam6n10 ) ( * Nl2arg42 lam6n11 ) ) 0 ) ( = ( + ( * ( - 1 ) lam6n4 ) ( * 1 lam6n7 ) ) 0 ) ) ( and ( >= lam8n0 0 ) ( >= lam8n1 0 ) ( >= lam8n2 0 ) ( >= lam8n3 0 ) ( >= lam8n4 0 ) ( >= lam8n5 0 ) ( >= lam8n6 0 ) ( >= lam8n7 0 ) ( >= lam8n8 0 ) ( >= lam8n9 0 ) ( >= lam8n10 0 ) ( >= lam8n11 0 ) ( > ( + ( * 1 lam8n0 ) ( * 1 lam8n1 ) ( * 1 lam8n2 ) ( * 1 lam8n3 ) ( * 1 lam8n4 ) ( * ( - 1 ) lam8n5 ) ( * ( - 1 ) lam8n6 ) ( * 2 lam8n9 ) ( * Nl2CT1 lam8n10 ) ( * Nl2CT2 lam8n11 ) ( - 1 ( + ( + ( + Nl2CT2 ( * Nl2arg12 0 ) ) ( * Nl2arg22 0 ) ) ( * Nl2arg32 0 ) ) ) ) 0 ) ( = ( + ( * ( - 1 ) lam8n0 ) ( * ( - 1 ) lam8n7 ) ( * ( - 1 ) lam8n9 ) ( * Nl2arg11 lam8n10 ) ( * Nl2arg12 lam8n11 ) ) 0 ) ( = ( + ( * ( - 1 ) lam8n1 ) ( * 1 lam8n5 ) ( * 1 lam8n6 ) ( * ( - 1 ) lam8n8 ) ( * Nl2arg21 lam8n10 ) ( * Nl2arg22 lam8n11 ) ( - ( + 0 ( * Nl2arg32 1 ) ) ) ) 0 ) ( = ( + ( * ( - 1 ) lam8n1 ) ( * ( - 1 ) lam8n2 ) ( * ( - 1 ) lam8n3 ) ( * ( - 1 ) lam8n5 ) ( * ( - 1 ) lam8n9 ) ( * Nl2arg31 lam8n10 ) ( * Nl2arg32 lam8n11 ) ( - ( + ( + 0 ( * Nl2arg22 1 ) ) ( * Nl2arg32 1 ) ) ) ) 0 ) ( = ( + ( * 1 lam8n1 ) ( * 1 lam8n3 ) ( * 1 lam8n6 ) ( * 1 lam8n9 ) ( * Nl2arg41 lam8n10 ) ( * Nl2arg42 lam8n11 ) ( - ( + 0 Nl2arg42 ) ) ) 0 ) ( = ( + ( * ( - 1 ) lam8n4 ) ( * 1 lam8n7 ) ( - ( + 0 ( * Nl2arg12 1 ) ) ) ) 0 ) ) ))
(assert ( or ( and ( >= lam9n0 0 ) ( >= lam9n1 0 ) ( >= lam9n2 0 ) ( >= lam9n3 0 ) ( >= lam9n4 0 ) ( >= lam9n5 0 ) ( >= lam9n6 0 ) ( >= lam9n7 0 ) ( >= lam9n8 0 ) ( >= lam9n9 0 ) ( >= lam9n10 0 ) ( > ( + ( * 1 lam9n0 ) ( * 1 lam9n1 ) ( * 1 lam9n2 ) ( * 1 lam9n3 ) ( * ( - 1 ) lam9n4 ) ( * 2 lam9n7 ) ( * 2 lam9n8 ) ( * Nl2CT1 lam9n9 ) ( * Nl2CT2 lam9n10 ) ( - 1 ) ) 0 ) ( = ( + ( * ( - 1 ) lam9n0 ) ( * ( - 1 ) lam9n5 ) ( * ( - 1 ) lam9n7 ) ( * Nl2arg11 lam9n9 ) ( * Nl2arg12 lam9n10 ) ) 0 ) ( = ( + ( * 1 lam9n4 ) ( * ( - 1 ) lam9n6 ) ( * ( - 1 ) lam9n8 ) ( * Nl2arg21 lam9n9 ) ( * Nl2arg22 lam9n10 ) ) 0 ) ( = ( + ( * ( - 1 ) lam9n1 ) ( * ( - 1 ) lam9n2 ) ( * ( - 1 ) lam9n4 ) ( * ( - 1 ) lam9n7 ) ( * Nl2arg31 lam9n9 ) ( * Nl2arg32 lam9n10 ) ) 0 ) ( = ( + ( * 1 lam9n2 ) ( * 1 lam9n7 ) ( * ( - 1 ) lam9n8 ) ( * Nl2arg41 lam9n9 ) ( * Nl2arg42 lam9n10 ) ) 0 ) ( = ( + ( * ( - 1 ) lam9n3 ) ( * 1 lam9n5 ) ) 0 ) ) ( and ( >= lam10n0 0 ) ( >= lam10n1 0 ) ( >= lam10n2 0 ) ( >= lam10n3 0 ) ( >= lam10n4 0 ) ( >= lam10n5 0 ) ( >= lam10n6 0 ) ( >= lam10n7 0 ) ( >= lam10n8 0 ) ( >= lam10n9 0 ) ( >= lam10n10 0 ) ( > ( + ( * 1 lam10n0 ) ( * 1 lam10n1 ) ( * 1 lam10n2 ) ( * 1 lam10n3 ) ( * ( - 1 ) lam10n4 ) ( * 2 lam10n7 ) ( * 2 lam10n8 ) ( * Nl2CT1 lam10n9 ) ( * Nl2CT2 lam10n10 ) ( - 1 ( + ( + ( + Nl2CT1 ( * Nl2arg11 0 ) ) ( * Nl2arg21 0 ) ) ( * Nl2arg31 0 ) ) ) ) 0 ) ( = ( + ( * ( - 1 ) lam10n0 ) ( * ( - 1 ) lam10n5 ) ( * ( - 1 ) lam10n7 ) ( * Nl2arg11 lam10n9 ) ( * Nl2arg12 lam10n10 ) ) 0 ) ( = ( + ( * 1 lam10n4 ) ( * ( - 1 ) lam10n6 ) ( * ( - 1 ) lam10n8 ) ( * Nl2arg21 lam10n9 ) ( * Nl2arg22 lam10n10 ) ( - ( + 0 ( * Nl2arg31 1 ) ) ) ) 0 ) ( = ( + ( * ( - 1 ) lam10n1 ) ( * ( - 1 ) lam10n2 ) ( * ( - 1 ) lam10n4 ) ( * ( - 1 ) lam10n7 ) ( * Nl2arg31 lam10n9 ) ( * Nl2arg32 lam10n10 ) ( - ( + ( + 0 ( * Nl2arg21 1 ) ) ( * Nl2arg31 1 ) ) ) ) 0 ) ( = ( + ( * 1 lam10n2 ) ( * 1 lam10n7 ) ( * ( - 1 ) lam10n8 ) ( * Nl2arg41 lam10n9 ) ( * Nl2arg42 lam10n10 ) ( - ( + 0 Nl2arg41 ) ) ) 0 ) ( = ( + ( * ( - 1 ) lam10n3 ) ( * 1 lam10n5 ) ( - ( + 0 ( * Nl2arg11 1 ) ) ) ) 0 ) ) ))
(assert ( or ( and ( >= lam9n0 0 ) ( >= lam9n1 0 ) ( >= lam9n2 0 ) ( >= lam9n3 0 ) ( >= lam9n4 0 ) ( >= lam9n5 0 ) ( >= lam9n6 0 ) ( >= lam9n7 0 ) ( >= lam9n8 0 ) ( >= lam9n9 0 ) ( >= lam9n10 0 ) ( > ( + ( * 1 lam9n0 ) ( * 1 lam9n1 ) ( * 1 lam9n2 ) ( * 1 lam9n3 ) ( * ( - 1 ) lam9n4 ) ( * 2 lam9n7 ) ( * 2 lam9n8 ) ( * Nl2CT1 lam9n9 ) ( * Nl2CT2 lam9n10 ) ( - 1 ) ) 0 ) ( = ( + ( * ( - 1 ) lam9n0 ) ( * ( - 1 ) lam9n5 ) ( * ( - 1 ) lam9n7 ) ( * Nl2arg11 lam9n9 ) ( * Nl2arg12 lam9n10 ) ) 0 ) ( = ( + ( * 1 lam9n4 ) ( * ( - 1 ) lam9n6 ) ( * ( - 1 ) lam9n8 ) ( * Nl2arg21 lam9n9 ) ( * Nl2arg22 lam9n10 ) ) 0 ) ( = ( + ( * ( - 1 ) lam9n1 ) ( * ( - 1 ) lam9n2 ) ( * ( - 1 ) lam9n4 ) ( * ( - 1 ) lam9n7 ) ( * Nl2arg31 lam9n9 ) ( * Nl2arg32 lam9n10 ) ) 0 ) ( = ( + ( * 1 lam9n2 ) ( * 1 lam9n7 ) ( * ( - 1 ) lam9n8 ) ( * Nl2arg41 lam9n9 ) ( * Nl2arg42 lam9n10 ) ) 0 ) ( = ( + ( * ( - 1 ) lam9n3 ) ( * 1 lam9n5 ) ) 0 ) ) ( and ( >= lam11n0 0 ) ( >= lam11n1 0 ) ( >= lam11n2 0 ) ( >= lam11n3 0 ) ( >= lam11n4 0 ) ( >= lam11n5 0 ) ( >= lam11n6 0 ) ( >= lam11n7 0 ) ( >= lam11n8 0 ) ( >= lam11n9 0 ) ( >= lam11n10 0 ) ( > ( + ( * 1 lam11n0 ) ( * 1 lam11n1 ) ( * 1 lam11n2 ) ( * 1 lam11n3 ) ( * ( - 1 ) lam11n4 ) ( * 2 lam11n7 ) ( * 2 lam11n8 ) ( * Nl2CT1 lam11n9 ) ( * Nl2CT2 lam11n10 ) ( - 1 ( + ( + ( + Nl2CT2 ( * Nl2arg12 0 ) ) ( * Nl2arg22 0 ) ) ( * Nl2arg32 0 ) ) ) ) 0 ) ( = ( + ( * ( - 1 ) lam11n0 ) ( * ( - 1 ) lam11n5 ) ( * ( - 1 ) lam11n7 ) ( * Nl2arg11 lam11n9 ) ( * Nl2arg12 lam11n10 ) ) 0 ) ( = ( + ( * 1 lam11n4 ) ( * ( - 1 ) lam11n6 ) ( * ( - 1 ) lam11n8 ) ( * Nl2arg21 lam11n9 ) ( * Nl2arg22 lam11n10 ) ( - ( + 0 ( * Nl2arg32 1 ) ) ) ) 0 ) ( = ( + ( * ( - 1 ) lam11n1 ) ( * ( - 1 ) lam11n2 ) ( * ( - 1 ) lam11n4 ) ( * ( - 1 ) lam11n7 ) ( * Nl2arg31 lam11n9 ) ( * Nl2arg32 lam11n10 ) ( - ( + ( + 0 ( * Nl2arg22 1 ) ) ( * Nl2arg32 1 ) ) ) ) 0 ) ( = ( + ( * 1 lam11n2 ) ( * 1 lam11n7 ) ( * ( - 1 ) lam11n8 ) ( * Nl2arg41 lam11n9 ) ( * Nl2arg42 lam11n10 ) ( - ( + 0 Nl2arg42 ) ) ) 0 ) ( = ( + ( * ( - 1 ) lam11n3 ) ( * 1 lam11n5 ) ( - ( + 0 ( * Nl2arg12 1 ) ) ) ) 0 ) ) ))
(assert ( or ( and ( <= ( + 1 ( * ( - 1 ) undef1 ) ) 0 ) ( <= ( + 1 ( * ( - 1 ) undef13 ) ) 0 ) ( <= ( + ( - 1 ) arg1 arg3 ( * ( - 1 ) arg4 ) ) 0 ) ( <= ( + undef1 ( * ( - 1 ) undef13 ) ) 0 ) ( <= ( * ( - 1 ) undef14 ) 0 ) ( not ( <= ( + ( - 1 ) arg2 arg4 ) 0 ) ) ( not ( <= ( + ( - 1 ) arg4 ) 0 ) ) ( = ( + ( - 1 ) arg3 ) 0 ) ( = ( + arg1 ( * ( - 1 ) undef1 ) ) 0 ) ( = arg2 0 ) ( = ( + arg4 ( * ( - 1 ) undef14 ) ) 0 ) ( <= ( + Nl2CT1 ( * ( + 0 Nl2arg11 ) arg1 ) ( * ( + 0 Nl2arg21 ) arg2 ) ( * ( + 0 Nl2arg31 ) arg3 ) ( * ( + 0 Nl2arg41 ) arg4 ) ) 0 ) ( <= ( + Nl2CT2 ( * ( + 0 Nl2arg12 ) arg1 ) ( * ( + 0 Nl2arg22 ) arg2 ) ( * ( + 0 Nl2arg32 ) arg3 ) ( * ( + 0 Nl2arg42 ) arg4 ) ) 0 ) ) ( and ( not ( <= ( + arg2 arg3 ( * ( - 1 ) arg4 ) ) 0 ) ) ( <= ( + 1 ( * ( - 1 ) undef1 ) ) 0 ) ( <= ( + 1 ( * ( - 1 ) undef13 ) ) 0 ) ( <= ( + ( - 1 ) arg2 arg4 ) 0 ) ( <= ( + undef1 ( * ( - 1 ) undef13 ) ) 0 ) ( <= ( * ( - 1 ) undef14 ) 0 ) ( not ( <= ( + ( - 1 ) arg1 arg3 ( * ( - 1 ) arg4 ) ) 0 ) ) ( = ( + ( - 1 ) arg3 ) 0 ) ( = ( + arg1 ( * ( - 1 ) undef1 ) ) 0 ) ( = arg2 0 ) ( = ( + arg4 ( * ( - 1 ) undef14 ) ) 0 ) ( <= ( + Nl2CT1 ( * ( + 0 Nl2arg11 ) arg1 ) ( * ( + 0 Nl2arg21 ) arg2 ) ( * ( + 0 Nl2arg31 ) arg3 ) ( * ( + 0 Nl2arg41 ) arg4 ) ) 0 ) ( <= ( + Nl2CT2 ( * ( + 0 Nl2arg12 ) arg1 ) ( * ( + 0 Nl2arg22 ) arg2 ) ( * ( + 0 Nl2arg32 ) arg3 ) ( * ( + 0 Nl2arg42 ) arg4 ) ) 0 ) ) ( and ( <= ( + 1 ( * ( - 1 ) undef1 ) ) 0 ) ( <= ( + 1 ( * ( - 1 ) undef13 ) ) 0 ) ( <= ( + undef1 ( * ( - 1 ) undef13 ) ) 0 ) ( <= ( * ( - 1 ) undef14 ) 0 ) ( not ( <= ( + ( - 1 ) arg1 arg3 ( * ( - 1 ) arg4 ) ) 0 ) ) ( not ( <= ( + ( - 1 ) arg2 arg4 ) 0 ) ) ( = ( + ( - 1 ) arg3 ) 0 ) ( = ( + arg1 ( * ( - 1 ) undef1 ) ) 0 ) ( = arg2 0 ) ( = ( + arg4 ( * ( - 1 ) undef14 ) ) 0 ) ( <= ( + Nl2CT1 ( * ( + 0 Nl2arg11 ) arg1 ) ( * ( + 0 Nl2arg21 ) arg2 ) ( * ( + 0 Nl2arg31 ) arg3 ) ( * ( + 0 Nl2arg41 ) arg4 ) ) 0 ) ( <= ( + Nl2CT2 ( * ( + 0 Nl2arg12 ) arg1 ) ( * ( + 0 Nl2arg22 ) arg2 ) ( * ( + 0 Nl2arg32 ) arg3 ) ( * ( + 0 Nl2arg42 ) arg4 ) ) 0 ) ) ))
(assert ( or ( and ( and ( and ( >= lam21n0 0 ) ( >= lam21n1 0 ) ( >= lam21n2 0 ) ( >= lam21n3 0 ) ( >= lam21n4 0 ) ( >= lam21n5 0 ) ( >= lam21n6 0 ) ( >= lam21n7 0 ) ( >= lam21n8 0 ) ( >= lam21n9 0 ) ( >= lam21n10 0 ) ( >= lam21n11 0 ) ( > ( + ( * 1 lam21n0 ) ( * 1 lam21n1 ) ( * 1 lam21n2 ) ( * 1 lam21n3 ) ( * 1 lam21n4 ) ( * ( - 1 ) lam21n5 ) ( * ( - 1 ) lam21n6 ) ( * 2 lam21n9 ) ( * Nl2CT1 lam21n10 ) ( * Nl2CT2 lam21n11 ) ( - 1 ( - ( + ( + ( + RFN1_CT ( * RFN1_arg1 0 ) ) ( * RFN1_arg2 0 ) ) ( * RFN1_arg3 0 ) ) RFN1_CT ) ) ) 0 ) ( = ( + ( * ( - 1 ) lam21n0 ) ( * ( - 1 ) lam21n7 ) ( * ( - 1 ) lam21n9 ) ( * Nl2arg11 lam21n10 ) ( * Nl2arg12 lam21n11 ) ( - ( - RFN1_arg1 ) ) ) 0 ) ( = ( + ( * ( - 1 ) lam21n1 ) ( * 1 lam21n5 ) ( * 1 lam21n6 ) ( * ( - 1 ) lam21n8 ) ( * Nl2arg21 lam21n10 ) ( * Nl2arg22 lam21n11 ) ( - ( - ( + 0 ( * RFN1_arg3 1 ) ) RFN1_arg2 ) ) ) 0 ) ( = ( + ( * ( - 1 ) lam21n1 ) ( * ( - 1 ) lam21n2 ) ( * ( - 1 ) lam21n3 ) ( * ( - 1 ) lam21n5 ) ( * ( - 1 ) lam21n9 ) ( * Nl2arg31 lam21n10 ) ( * Nl2arg32 lam21n11 ) ( - ( - ( + ( + 0 ( * RFN1_arg2 1 ) ) ( * RFN1_arg3 1 ) ) RFN1_arg3 ) ) ) 0 ) ( = ( + ( * 1 lam21n1 ) ( * 1 lam21n3 ) ( * 1 lam21n6 ) ( * 1 lam21n9 ) ( * Nl2arg41 lam21n10 ) ( * Nl2arg42 lam21n11 ) ( - ( - ( + 0 RFN1_arg4 ) RFN1_arg4 ) ) ) 0 ) ( = ( + ( * ( - 1 ) lam21n4 ) ( * 1 lam21n7 ) ( - ( + 0 ( * RFN1_arg1 1 ) ) ) ) 0 ) ) ( and ( >= lam25n0 0 ) ( >= lam25n1 0 ) ( >= lam25n2 0 ) ( >= lam25n3 0 ) ( >= lam25n4 0 ) ( >= lam25n5 0 ) ( >= lam25n6 0 ) ( >= lam25n7 0 ) ( >= lam25n8 0 ) ( >= lam25n9 0 ) ( >= lam25n10 0 ) ( > ( + ( * 1 lam25n0 ) ( * 1 lam25n1 ) ( * 1 lam25n2 ) ( * 1 lam25n3 ) ( * ( - 1 ) lam25n4 ) ( * 2 lam25n7 ) ( * 2 lam25n8 ) ( * Nl2CT1 lam25n9 ) ( * Nl2CT2 lam25n10 ) ( - 1 ( - ( + ( + ( + RFN1_CT ( * RFN1_arg1 0 ) ) ( * RFN1_arg2 0 ) ) ( * RFN1_arg3 0 ) ) RFN1_CT ) ) ) 0 ) ( = ( + ( * ( - 1 ) lam25n0 ) ( * ( - 1 ) lam25n5 ) ( * ( - 1 ) lam25n7 ) ( * Nl2arg11 lam25n9 ) ( * Nl2arg12 lam25n10 ) ( - ( - RFN1_arg1 ) ) ) 0 ) ( = ( + ( * 1 lam25n4 ) ( * ( - 1 ) lam25n6 ) ( * ( - 1 ) lam25n8 ) ( * Nl2arg21 lam25n9 ) ( * Nl2arg22 lam25n10 ) ( - ( - ( + 0 ( * RFN1_arg3 1 ) ) RFN1_arg2 ) ) ) 0 ) ( = ( + ( * ( - 1 ) lam25n1 ) ( * ( - 1 ) lam25n2 ) ( * ( - 1 ) lam25n4 ) ( * ( - 1 ) lam25n7 ) ( * Nl2arg31 lam25n9 ) ( * Nl2arg32 lam25n10 ) ( - ( - ( + ( + 0 ( * RFN1_arg2 1 ) ) ( * RFN1_arg3 1 ) ) RFN1_arg3 ) ) ) 0 ) ( = ( + ( * 1 lam25n2 ) ( * 1 lam25n7 ) ( * ( - 1 ) lam25n8 ) ( * Nl2arg41 lam25n9 ) ( * Nl2arg42 lam25n10 ) ( - ( - ( + 0 RFN1_arg4 ) RFN1_arg4 ) ) ) 0 ) ( = ( + ( * ( - 1 ) lam25n3 ) ( * 1 lam25n5 ) ( - ( + 0 ( * RFN1_arg1 1 ) ) ) ) 0 ) ) ) ( or ( and ( and ( >= lam19n0 0 ) ( >= lam19n1 0 ) ( >= lam19n2 0 ) ( >= lam19n3 0 ) ( >= lam19n4 0 ) ( >= lam19n5 0 ) ( >= lam19n6 0 ) ( >= lam19n7 0 ) ( >= lam19n8 0 ) ( >= lam19n9 0 ) ( >= lam19n10 0 ) ( >= lam19n11 0 ) ( > ( + ( * 1 lam19n0 ) ( * 1 lam19n1 ) ( * 1 lam19n2 ) ( * 1 lam19n3 ) ( * 1 lam19n4 ) ( * ( - 1 ) lam19n5 ) ( * ( - 1 ) lam19n6 ) ( * 2 lam19n9 ) ( * Nl2CT1 lam19n10 ) ( * Nl2CT2 lam19n11 ) ( - 1 ( - RFN1_CT ) ) ) 0 ) ( = ( + ( * ( - 1 ) lam19n0 ) ( * ( - 1 ) lam19n7 ) ( * ( - 1 ) lam19n9 ) ( * Nl2arg11 lam19n10 ) ( * Nl2arg12 lam19n11 ) ( - ( - RFN1_arg1 ) ) ) 0 ) ( = ( + ( * ( - 1 ) lam19n1 ) ( * 1 lam19n5 ) ( * 1 lam19n6 ) ( * ( - 1 ) lam19n8 ) ( * Nl2arg21 lam19n10 ) ( * Nl2arg22 lam19n11 ) ( - ( - RFN1_arg2 ) ) ) 0 ) ( = ( + ( * ( - 1 ) lam19n1 ) ( * ( - 1 ) lam19n2 ) ( * ( - 1 ) lam19n3 ) ( * ( - 1 ) lam19n5 ) ( * ( - 1 ) lam19n9 ) ( * Nl2arg31 lam19n10 ) ( * Nl2arg32 lam19n11 ) ( - ( - RFN1_arg3 ) ) ) 0 ) ( = ( + ( * 1 lam19n1 ) ( * 1 lam19n3 ) ( * 1 lam19n6 ) ( * 1 lam19n9 ) ( * Nl2arg41 lam19n10 ) ( * Nl2arg42 lam19n11 ) ( - ( - RFN1_arg4 ) ) ) 0 ) ( = ( + ( * ( - 1 ) lam19n4 ) ( * 1 lam19n7 ) ) 0 ) ) ( and ( >= lam20n0 0 ) ( >= lam20n1 0 ) ( >= lam20n2 0 ) ( >= lam20n3 0 ) ( >= lam20n4 0 ) ( >= lam20n5 0 ) ( >= lam20n6 0 ) ( >= lam20n7 0 ) ( >= lam20n8 0 ) ( >= lam20n9 0 ) ( >= lam20n10 0 ) ( >= lam20n11 0 ) ( > ( + ( * 1 lam20n0 ) ( * 1 lam20n1 ) ( * 1 lam20n2 ) ( * 1 lam20n3 ) ( * 1 lam20n4 ) ( * ( - 1 ) lam20n5 ) ( * ( - 1 ) lam20n6 ) ( * 2 lam20n9 ) ( * Nl2CT1 lam20n10 ) ( * Nl2CT2 lam20n11 ) ( - 1 ( + ( - ( + ( + ( + RFN1_CT ( * RFN1_arg1 0 ) ) ( * RFN1_arg2 0 ) ) ( * RFN1_arg3 0 ) ) RFN1_CT ) 1 ) ) ) 0 ) ( = ( + ( * ( - 1 ) lam20n0 ) ( * ( - 1 ) lam20n7 ) ( * ( - 1 ) lam20n9 ) ( * Nl2arg11 lam20n10 ) ( * Nl2arg12 lam20n11 ) ( - ( - RFN1_arg1 ) ) ) 0 ) ( = ( + ( * ( - 1 ) lam20n1 ) ( * 1 lam20n5 ) ( * 1 lam20n6 ) ( * ( - 1 ) lam20n8 ) ( * Nl2arg21 lam20n10 ) ( * Nl2arg22 lam20n11 ) ( - ( - ( + 0 ( * RFN1_arg3 1 ) ) RFN1_arg2 ) ) ) 0 ) ( = ( + ( * ( - 1 ) lam20n1 ) ( * ( - 1 ) lam20n2 ) ( * ( - 1 ) lam20n3 ) ( * ( - 1 ) lam20n5 ) ( * ( - 1 ) lam20n9 ) ( * Nl2arg31 lam20n10 ) ( * Nl2arg32 lam20n11 ) ( - ( - ( + ( + 0 ( * RFN1_arg2 1 ) ) ( * RFN1_arg3 1 ) ) RFN1_arg3 ) ) ) 0 ) ( = ( + ( * 1 lam20n1 ) ( * 1 lam20n3 ) ( * 1 lam20n6 ) ( * 1 lam20n9 ) ( * Nl2arg41 lam20n10 ) ( * Nl2arg42 lam20n11 ) ( - ( - ( + 0 RFN1_arg4 ) RFN1_arg4 ) ) ) 0 ) ( = ( + ( * ( - 1 ) lam20n4 ) ( * 1 lam20n7 ) ( - ( + 0 ( * RFN1_arg1 1 ) ) ) ) 0 ) ) ) ( and ( and ( >= lam23n0 0 ) ( >= lam23n1 0 ) ( >= lam23n2 0 ) ( >= lam23n3 0 ) ( >= lam23n4 0 ) ( >= lam23n5 0 ) ( >= lam23n6 0 ) ( >= lam23n7 0 ) ( >= lam23n8 0 ) ( >= lam23n9 0 ) ( >= lam23n10 0 ) ( > ( + ( * 1 lam23n0 ) ( * 1 lam23n1 ) ( * 1 lam23n2 ) ( * 1 lam23n3 ) ( * ( - 1 ) lam23n4 ) ( * 2 lam23n7 ) ( * 2 lam23n8 ) ( * Nl2CT1 lam23n9 ) ( * Nl2CT2 lam23n10 ) ( - 1 ( - RFN1_CT ) ) ) 0 ) ( = ( + ( * ( - 1 ) lam23n0 ) ( * ( - 1 ) lam23n5 ) ( * ( - 1 ) lam23n7 ) ( * Nl2arg11 lam23n9 ) ( * Nl2arg12 lam23n10 ) ( - ( - RFN1_arg1 ) ) ) 0 ) ( = ( + ( * 1 lam23n4 ) ( * ( - 1 ) lam23n6 ) ( * ( - 1 ) lam23n8 ) ( * Nl2arg21 lam23n9 ) ( * Nl2arg22 lam23n10 ) ( - ( - RFN1_arg2 ) ) ) 0 ) ( = ( + ( * ( - 1 ) lam23n1 ) ( * ( - 1 ) lam23n2 ) ( * ( - 1 ) lam23n4 ) ( * ( - 1 ) lam23n7 ) ( * Nl2arg31 lam23n9 ) ( * Nl2arg32 lam23n10 ) ( - ( - RFN1_arg3 ) ) ) 0 ) ( = ( + ( * 1 lam23n2 ) ( * 1 lam23n7 ) ( * ( - 1 ) lam23n8 ) ( * Nl2arg41 lam23n9 ) ( * Nl2arg42 lam23n10 ) ( - ( - RFN1_arg4 ) ) ) 0 ) ( = ( + ( * ( - 1 ) lam23n3 ) ( * 1 lam23n5 ) ) 0 ) ) ( and ( >= lam24n0 0 ) ( >= lam24n1 0 ) ( >= lam24n2 0 ) ( >= lam24n3 0 ) ( >= lam24n4 0 ) ( >= lam24n5 0 ) ( >= lam24n6 0 ) ( >= lam24n7 0 ) ( >= lam24n8 0 ) ( >= lam24n9 0 ) ( >= lam24n10 0 ) ( > ( + ( * 1 lam24n0 ) ( * 1 lam24n1 ) ( * 1 lam24n2 ) ( * 1 lam24n3 ) ( * ( - 1 ) lam24n4 ) ( * 2 lam24n7 ) ( * 2 lam24n8 ) ( * Nl2CT1 lam24n9 ) ( * Nl2CT2 lam24n10 ) ( - 1 ( + ( - ( + ( + ( + RFN1_CT ( * RFN1_arg1 0 ) ) ( * RFN1_arg2 0 ) ) ( * RFN1_arg3 0 ) ) RFN1_CT ) 1 ) ) ) 0 ) ( = ( + ( * ( - 1 ) lam24n0 ) ( * ( - 1 ) lam24n5 ) ( * ( - 1 ) lam24n7 ) ( * Nl2arg11 lam24n9 ) ( * Nl2arg12 lam24n10 ) ( - ( - RFN1_arg1 ) ) ) 0 ) ( = ( + ( * 1 lam24n4 ) ( * ( - 1 ) lam24n6 ) ( * ( - 1 ) lam24n8 ) ( * Nl2arg21 lam24n9 ) ( * Nl2arg22 lam24n10 ) ( - ( - ( + 0 ( * RFN1_arg3 1 ) ) RFN1_arg2 ) ) ) 0 ) ( = ( + ( * ( - 1 ) lam24n1 ) ( * ( - 1 ) lam24n2 ) ( * ( - 1 ) lam24n4 ) ( * ( - 1 ) lam24n7 ) ( * Nl2arg31 lam24n9 ) ( * Nl2arg32 lam24n10 ) ( - ( - ( + ( + 0 ( * RFN1_arg2 1 ) ) ( * RFN1_arg3 1 ) ) RFN1_arg3 ) ) ) 0 ) ( = ( + ( * 1 lam24n2 ) ( * 1 lam24n7 ) ( * ( - 1 ) lam24n8 ) ( * Nl2arg41 lam24n9 ) ( * Nl2arg42 lam24n10 ) ( - ( - ( + 0 RFN1_arg4 ) RFN1_arg4 ) ) ) 0 ) ( = ( + ( * ( - 1 ) lam24n3 ) ( * 1 lam24n5 ) ( - ( + 0 ( * RFN1_arg1 1 ) ) ) ) 0 ) ) ) ) ) ( or ( and ( >= lam18n0 0 ) ( >= lam18n1 0 ) ( >= lam18n2 0 ) ( >= lam18n3 0 ) ( >= lam18n4 0 ) ( >= lam18n5 0 ) ( >= lam18n6 0 ) ( >= lam18n7 0 ) ( >= lam18n8 0 ) ( >= lam18n9 0 ) ( >= lam18n10 0 ) ( >= lam18n11 0 ) ( > ( + ( * 1 lam18n0 ) ( * 1 lam18n1 ) ( * 1 lam18n2 ) ( * 1 lam18n3 ) ( * 1 lam18n4 ) ( * ( - 1 ) lam18n5 ) ( * ( - 1 ) lam18n6 ) ( * 2 lam18n9 ) ( * Nl2CT1 lam18n10 ) ( * Nl2CT2 lam18n11 ) ( - 1 ) ) 0 ) ( = ( + ( * ( - 1 ) lam18n0 ) ( * ( - 1 ) lam18n7 ) ( * ( - 1 ) lam18n9 ) ( * Nl2arg11 lam18n10 ) ( * Nl2arg12 lam18n11 ) ) 0 ) ( = ( + ( * ( - 1 ) lam18n1 ) ( * 1 lam18n5 ) ( * 1 lam18n6 ) ( * ( - 1 ) lam18n8 ) ( * Nl2arg21 lam18n10 ) ( * Nl2arg22 lam18n11 ) ) 0 ) ( = ( + ( * ( - 1 ) lam18n1 ) ( * ( - 1 ) lam18n2 ) ( * ( - 1 ) lam18n3 ) ( * ( - 1 ) lam18n5 ) ( * ( - 1 ) lam18n9 ) ( * Nl2arg31 lam18n10 ) ( * Nl2arg32 lam18n11 ) ) 0 ) ( = ( + ( * 1 lam18n1 ) ( * 1 lam18n3 ) ( * 1 lam18n6 ) ( * 1 lam18n9 ) ( * Nl2arg41 lam18n10 ) ( * Nl2arg42 lam18n11 ) ) 0 ) ( = ( + ( * ( - 1 ) lam18n4 ) ( * 1 lam18n7 ) ) 0 ) ) ( and ( >= lam22n0 0 ) ( >= lam22n1 0 ) ( >= lam22n2 0 ) ( >= lam22n3 0 ) ( >= lam22n4 0 ) ( >= lam22n5 0 ) ( >= lam22n6 0 ) ( >= lam22n7 0 ) ( >= lam22n8 0 ) ( >= lam22n9 0 ) ( >= lam22n10 0 ) ( > ( + ( * 1 lam22n0 ) ( * 1 lam22n1 ) ( * 1 lam22n2 ) ( * 1 lam22n3 ) ( * ( - 1 ) lam22n4 ) ( * 2 lam22n7 ) ( * 2 lam22n8 ) ( * Nl2CT1 lam22n9 ) ( * Nl2CT2 lam22n10 ) ( - 1 ) ) 0 ) ( = ( + ( * ( - 1 ) lam22n0 ) ( * ( - 1 ) lam22n5 ) ( * ( - 1 ) lam22n7 ) ( * Nl2arg11 lam22n9 ) ( * Nl2arg12 lam22n10 ) ) 0 ) ( = ( + ( * 1 lam22n4 ) ( * ( - 1 ) lam22n6 ) ( * ( - 1 ) lam22n8 ) ( * Nl2arg21 lam22n9 ) ( * Nl2arg22 lam22n10 ) ) 0 ) ( = ( + ( * ( - 1 ) lam22n1 ) ( * ( - 1 ) lam22n2 ) ( * ( - 1 ) lam22n4 ) ( * ( - 1 ) lam22n7 ) ( * Nl2arg31 lam22n9 ) ( * Nl2arg32 lam22n10 ) ) 0 ) ( = ( + ( * 1 lam22n2 ) ( * 1 lam22n7 ) ( * ( - 1 ) lam22n8 ) ( * Nl2arg41 lam22n9 ) ( * Nl2arg42 lam22n10 ) ) 0 ) ( = ( + ( * ( - 1 ) lam22n3 ) ( * 1 lam22n5 ) ) 0 ) ) ) ))
(check-sat)
(exit)
